(set-logic QF_FPBV)
(set-info :source |Random FP created by PyMPF|)
(set-info :category random)
(set-info :status unsat)
;; fp.from.sbv(BitVec 128)
(declare-const x (_ BitVec 128))
(assert (bvsle x #b00000011010010011111111000001101011100011100100101011100101101011011001011110100111000100000111101110100101110101000111001111010))
;; x should be 4371874455248468254345033498656149114
(declare-const r Float64)
(assert (= r ((_ to_fp 11 53) RNA x)))
(assert (not (fp.leq r ((_ to_fp 11 53) #x478A4FF06B8E4AE6))))
(check-sat)
(exit)
